NAME          DCAP_3_4_2_300_SS198
ROWS
 N  OBJ
 L  CON1
 L  CON2
 L  CON3
 L  CON4
 L  CON5
 L  CON6
 L  CON7
 L  CON8
 L  CON9
 L  CON10
 L  CON11
 L  CON12
 E  CON13
 E  CON14
 E  CON15
 E  CON16
 E  CON17
 E  CON18
 E  CON19
 E  CON20
COLUMNS
    x[1,1]    OBJ       6.180167      CON1      1.000000    
    x[1,1]    CON7      -1.000000     CON8      -1.000000   
    x[1,2]    OBJ       5.039546      CON2      1.000000    
    x[1,2]    CON8      -1.000000   
    x[2,1]    OBJ       6.732585      CON3      1.000000    
    x[2,1]    CON9      -1.000000     CON10     -1.000000   
    x[2,2]    OBJ       7.443064      CON4      1.000000    
    x[2,2]    CON10     -1.000000   
    x[3,1]    OBJ       6.563535      CON5      1.000000    
    x[3,1]    CON11     -1.000000     CON12     -1.000000   
    x[3,2]    OBJ       6.054841      CON6      1.000000    
    x[3,2]    CON12     -1.000000   
    MARKER    'MARKER'                'INTORG'
    u[1,1]    OBJ       48.076654     CON1      -1.000000   
    u[1,2]    OBJ       49.466655     CON2      -1.000000   
    u[2,1]    OBJ       49.996186     CON3      -1.000000   
    u[2,2]    OBJ       32.230043     CON4      -1.000000   
    u[3,1]    OBJ       20.066487     CON5      -1.000000   
    u[3,2]    OBJ       27.484319     CON6      -1.000000   
    y[1,1,1]  OBJ       6.989938      CON7      1.276908    
    y[1,1,1]  CON13     1.000000    
    y[1,1,2]  OBJ       9.252659      CON8      0.742315    
    y[1,1,2]  CON14     1.000000    
    y[1,2,1]  OBJ       7.985667      CON7      0.608429    
    y[1,2,1]  CON15     1.000000    
    y[1,2,2]  OBJ       9.459457      CON8      1.144379    
    y[1,2,2]  CON16     1.000000    
    y[1,3,1]  OBJ       5.697556      CON7      0.745332    
    y[1,3,1]  CON17     1.000000    
    y[1,3,2]  OBJ       5.932223      CON8      1.013767    
    y[1,3,2]  CON18     1.000000    
    y[1,4,1]  OBJ       8.741139      CON7      0.545881    
    y[1,4,1]  CON19     1.000000    
    y[1,4,2]  OBJ       6.601006      CON8      0.808137    
    y[1,4,2]  CON20     1.000000    
    y[2,1,1]  OBJ       8.510012      CON9      1.276908    
    y[2,1,1]  CON13     1.000000    
    y[2,1,2]  OBJ       9.299331      CON10     0.742315    
    y[2,1,2]  CON14     1.000000    
    y[2,2,1]  OBJ       5.065661      CON9      0.608429    
    y[2,2,1]  CON15     1.000000    
    y[2,2,2]  OBJ       5.718424      CON10     1.144379    
    y[2,2,2]  CON16     1.000000    
    y[2,3,1]  OBJ       9.490104      CON9      0.745332    
    y[2,3,1]  CON17     1.000000    
    y[2,3,2]  OBJ       9.693729      CON10     1.013767    
    y[2,3,2]  CON18     1.000000    
    y[2,4,1]  OBJ       7.966028      CON9      0.545881    
    y[2,4,1]  CON19     1.000000    
    y[2,4,2]  OBJ       7.328944      CON10     0.808137    
    y[2,4,2]  CON20     1.000000    
    y[3,1,1]  OBJ       6.521492      CON11     1.276908    
    y[3,1,1]  CON13     1.000000    
    y[3,1,2]  OBJ       8.972652      CON12     0.742315    
    y[3,1,2]  CON14     1.000000    
    y[3,2,1]  OBJ       6.873177      CON11     0.608429    
    y[3,2,1]  CON15     1.000000    
    y[3,2,2]  OBJ       5.141852      CON12     1.144379    
    y[3,2,2]  CON16     1.000000    
    y[3,3,1]  OBJ       5.848290      CON11     0.745332    
    y[3,3,1]  CON17     1.000000    
    y[3,3,2]  OBJ       9.331189      CON12     1.013767    
    y[3,3,2]  CON18     1.000000    
    y[3,4,1]  OBJ       5.103196      CON11     0.545881    
    y[3,4,1]  CON19     1.000000    
    y[3,4,2]  OBJ       5.835357      CON12     0.808137    
    y[3,4,2]  CON20     1.000000    
    z[1,1]    OBJ       728.080773    CON13     1.000000    
    z[1,2]    OBJ       631.688461    CON14     1.000000    
    z[2,1]    OBJ       621.596331    CON15     1.000000    
    z[2,2]    OBJ       606.036122    CON16     1.000000    
    z[3,1]    OBJ       933.329039    CON17     1.000000    
    z[3,2]    OBJ       650.559937    CON18     1.000000    
    z[4,1]    OBJ       689.832738    CON19     1.000000    
    z[4,2]    OBJ       997.264992    CON20     1.000000    
    MARKER    'MARKER'                 'INTEND'
RHS
    RHS       CON1      -0.000000     CON2      -0.000000   
    RHS       CON3      -0.000000     CON4      -0.000000   
    RHS       CON5      -0.000000     CON6      -0.000000   
    RHS       CON7      -0.000000     CON8      -0.000000   
    RHS       CON9      -0.000000     CON10     -0.000000   
    RHS       CON11     -0.000000     CON12     -0.000000   
    RHS       CON13     1.000000      CON14     1.000000    
    RHS       CON15     1.000000      CON16     1.000000    
    RHS       CON17     1.000000      CON18     1.000000    
    RHS       CON19     1.000000      CON20     1.000000    
BOUNDS
 BV BOUND     u[1,1]  
 BV BOUND     u[1,2]  
 BV BOUND     u[2,1]  
 BV BOUND     u[2,2]  
 BV BOUND     u[3,1]  
 BV BOUND     u[3,2]  
 BV BOUND     y[1,1,1]
 BV BOUND     y[1,1,2]
 BV BOUND     y[1,2,1]
 BV BOUND     y[1,2,2]
 BV BOUND     y[1,3,1]
 BV BOUND     y[1,3,2]
 BV BOUND     y[1,4,1]
 BV BOUND     y[1,4,2]
 BV BOUND     y[2,1,1]
 BV BOUND     y[2,1,2]
 BV BOUND     y[2,2,1]
 BV BOUND     y[2,2,2]
 BV BOUND     y[2,3,1]
 BV BOUND     y[2,3,2]
 BV BOUND     y[2,4,1]
 BV BOUND     y[2,4,2]
 BV BOUND     y[3,1,1]
 BV BOUND     y[3,1,2]
 BV BOUND     y[3,2,1]
 BV BOUND     y[3,2,2]
 BV BOUND     y[3,3,1]
 BV BOUND     y[3,3,2]
 BV BOUND     y[3,4,1]
 BV BOUND     y[3,4,2]
 BV BOUND     z[1,1]  
 BV BOUND     z[1,2]  
 BV BOUND     z[2,1]  
 BV BOUND     z[2,2]  
 BV BOUND     z[3,1]  
 BV BOUND     z[3,2]  
 BV BOUND     z[4,1]  
 BV BOUND     z[4,2]  
ENDATA
